50, 1042875
14550, 4064
14121, 4200
14818, 4168
14358, 4160
14440, 4178
14287, 4158
14166, 4093
14632, 4155
14137, 4170
14768, 4009
14087, 4177
14462, 4063
14135, 4025
14589, 3949
13917, 4017
14582, 4092
14574, 4106
14752, 3935
14676, 4162
14423, 3949
14558, 3927
14470, 4187
14792, 3981
14490, 4187
14746, 3938
1019442, 196250
1005707, 192325
991838, 188400
977959, 184475
965261, 180550
951785, 176625
937930, 172700
924203, 168775
910957, 164850
897239, 160925
883901, 157000
870255, 153075
856432, 149150
842576, 145225
828969, 141300
815654, 137375
802065, 133450
788829, 129525
775454, 125600
761726, 121675
747822, 117750
733939, 113825
722525, 109900
708666, 105975
695240, 102050
